=1
=2
=0IBM ILOG CPLEX   42.1.0 cb854401 Feb 1, 2023           LEG x86 64bit/Linux    
=1
--- GAMS/Cplex licensed for continuous and discrete problems.
=2
=C
=1
=CReading parameter(s) from "/storage/home/ejm6426/scratch/scRBA/parameterization/kapp/datasets/Yu2021_chemoClimNH4_010_using_rtRBA_methods/min_flux_violation/cplex.opt"
=C>>  optcr = 1E-12
=C>>  optca = 1E-12
=C>>  eprhs = 1E-9
=C>> 
=CFinished reading from "/storage/home/ejm6426/scratch/scRBA/parameterization/kapp/datasets/Yu2021_chemoClimNH4_010_using_rtRBA_methods/min_flux_violation/cplex.opt"
=2
=C
=1
--- GMO setup time: 0.00s
=2
=1
--- Space for names approximately 0.48 Mb
=2
=1
--- Use option 'names no' to turn use of names off
=2
=1
--- GMO memory 5.78 Mb (peak 5.86 Mb)
=2
=1
--- Dictionary memory 0.00 Mb
=2
=1
--- Cplex 22.1.1.0 link memory 0.26 Mb (peak 1.90 Mb)
=2
=1
--- Starting Cplex
=2
=C
Version identifier: 22.1.1.0 | 2022-11-28 | 9160aff4d
CPXPARAM_Advance                                 2
CPXPARAM_Threads                                 1
CPXPARAM_MIP_Display                             4
CPXPARAM_MIP_Pool_Capacity                       0
CPXPARAM_Simplex_Limits_Iterations               1000000
CPXPARAM_Simplex_Tolerances_Feasibility          1.0000000000000001e-09
CPXPARAM_TimeLimit                               1000000
CPXPARAM_MIP_Tolerances_AbsMIPGap                9.9999999999999998e-13
CPXPARAM_MIP_Tolerances_MIPGap                   9.9999999999999998e-13
Tried aggregator 1 time.
LP Presolve eliminated 2449 rows and 7474 columns.
Aggregator did 1340 substitutions.
Reduced LP has 797 rows, 1870 columns, and 17322 nonzeros.
Presolve time = 0.02 sec. (16.90 ticks)

Iteration log . . .
Iteration:     1    Scaled infeas =             0.000001
Iteration:   138    Scaled infeas =             0.000000
Iteration:   222    Scaled infeas =             0.000000
Switched to devex.
Iteration:   286    Objective     =   35010334872.086884
Iteration:   423    Objective     =    3012749130.890353
Removing shift (29).
Iteration:   481   Dual objective     =      12728992.388189
Markowitz threshold set to 0.1
Iteration:   493    Scaled infeas =             0.000083
Iteration:   497    Scaled infeas =             0.000048
=C
=1
--- LP status (3): infeasible.
=2
=1
--- Cplex Time: 0.10sec (det. 61.47 ticks)

=2
=C
=CModel has been proven infeasible
=C
